22
2 10 13 
2 19 22 
3 4 30 21 
2 31 43 
3 59 6 7 
3 29 60 58 
3 1 5 16 
2 49 42 
3 2 26 55 
3 3 37 24 
3 18 46 15 
3 40 48 47 
3 51 52 33 
2 25 28 
3 36 9 41 
3 39 54 8 
3 27 57 45 
3 32 38 17 
3 50 53 34 
3 44 35 23 
3 12 20 14 
2 56 11 
